; benchmark generated from python API
(set-info :status unknown)
(declare-fun tau_0 () Real)
(declare-fun TauIndex0 () Real)
(declare-fun TauIndex4 () Real)
(declare-fun TauIndex2 () Real)
(declare-fun TauIndex6 () Real)
(declare-fun TauIndex1 () Real)
(declare-fun TauIndex3 () Real)
(declare-fun TauIndex5 () Real)
(declare-fun time1 () Real)
(declare-fun time0 () Real)
(declare-fun tau_1 () Real)
(declare-fun fx_1_0 () Real)
(declare-fun fx_1_t () Real)
(declare-fun fx_0_0 () Real)
(declare-fun fx_0_t () Real)
(declare-fun sx_1_0 () Real)
(declare-fun sx_1_t () Real)
(declare-fun sx_0_0 () Real)
(declare-fun sx_0_t () Real)
(declare-fun reachability_1 () Bool)
(declare-fun reachability_0 () Bool)
(declare-fun chi0 () Bool)
(declare-fun chi2 () Bool)
(declare-fun chi1 () Bool)
(declare-fun ms_1 () Bool)
(declare-fun mf_1 () Bool)
(declare-fun ms_0 () Bool)
(declare-fun mf_0 () Bool)
(assert
 (let (($x612 (and (or (not (<= TauIndex0 tau_0)) reachability_0) (or (not (>= 0.0 tau_0)) reachability_1))))
(let (($x600 (or (not (and (<= 0.0 TauIndex0) (not (<= tau_0 TauIndex0)))) reachability_0)))
(let (($x605 (= chi1 (not (and $x600 (or (not (>= TauIndex0 tau_0)) reachability_1))))))
(let (($x588 (or (not (and (>= 40.0 TauIndex0) (<= 0.0 TauIndex0))) chi1)))
(let (($x594 (and (or (<= TauIndex0 0.0) chi0) $x588 (or (<= 40.0 TauIndex0) chi2))))
(let (($x576 (or (= TauIndex5 0.0) (= TauIndex3 0.0) (= TauIndex1 0.0) (= TauIndex6 0.0) (= TauIndex2 0.0) (= TauIndex4 0.0))))
(let (($x578 (or (not (and (<= 0.0 tau_0) (<= 40.0 tau_0))) (= TauIndex5 (+ (- 40.0) tau_0)) (= TauIndex3 (+ (- 40.0) tau_0)) (= TauIndex1 (+ (- 40.0) tau_0)) (= TauIndex6 (+ (- 40.0) tau_0)) (= TauIndex2 (+ (- 40.0) tau_0)) (= TauIndex4 (+ (- 40.0) tau_0)))))
(let (($x574 (or (not (<= 0.0 tau_0)) (= TauIndex5 tau_0) (= TauIndex3 tau_0) (= TauIndex1 tau_0) (= TauIndex6 tau_0) (= TauIndex2 tau_0) (= TauIndex4 tau_0))))
(let (($x300 (= 0.0 TauIndex4)))
(let (($x162 (<= 0.0 tau_0)))
(let (($x568 (and $x162 (or $x300 (= TauIndex4 tau_0) (= TauIndex4 (+ (- 40.0) tau_0))))))
(let (($x291 (= 0.0 TauIndex2)))
(let (($x561 (and $x162 (or $x291 (= TauIndex2 tau_0) (= TauIndex2 (+ (- 40.0) tau_0))))))
(let (($x282 (= 0.0 TauIndex6)))
(let (($x554 (and $x162 (or $x282 (= TauIndex6 tau_0) (= TauIndex6 (+ (- 40.0) tau_0))))))
(let (($x273 (= 0.0 TauIndex1)))
(let (($x547 (and $x162 (or $x273 (= TauIndex1 tau_0) (= TauIndex1 (+ (- 40.0) tau_0))))))
(let (($x264 (= 0.0 TauIndex3)))
(let (($x540 (and $x162 (or $x264 (= TauIndex3 tau_0) (= TauIndex3 (+ (- 40.0) tau_0))))))
(let (($x250 (= 0.0 TauIndex5)))
(let (($x531 (and $x162 (or $x250 (= TauIndex5 tau_0) (= TauIndex5 (+ (- 40.0) tau_0))))))
(let (($x237 (<= 0.0 TauIndex6)))
(let (($x234 (<= 0.0 TauIndex5)))
(let (($x231 (<= 0.0 TauIndex4)))
(let (($x228 (<= 0.0 TauIndex3)))
(let (($x225 (<= 0.0 TauIndex2)))
(let (($x222 (<= 0.0 TauIndex1)))
(let (($x218 (<= 0.0 TauIndex0)))
(let (($x501 (and (<= fx_1_t 21.0) (<= fx_1_0 21.0))))
(let (($x497 (and (not (<= fx_1_t 21.0)) (not (<= fx_1_0 21.0)))))
(let (($x471 (and (<= fx_0_t 21.0) (<= fx_0_0 21.0))))
(let (($x467 (and (not (<= fx_0_t 21.0)) (not (<= fx_0_0 21.0)))))
(let (($x44 (not ms_1)))
(let (($x49 (not mf_1)))
(let (($x454 (and $x49 $x44 (= fx_1_t (+ fx_1_0 (* (- (/ 2.0 5.0)) time1))) (= sx_1_t (+ sx_1_0 (* (- (/ 3.0 5.0)) time1))) (not (<= fx_1_t 0.0)) (not (<= sx_1_t 0.0)) (not (<= fx_1_0 0.0)) (not (<= sx_1_0 0.0)))))
(let (($x116 (= fx_1_t (+ fx_1_0 (* (/ 7.0 10.0) time1)))))
(let (($x453 (and mf_1 $x44 $x116 (= sx_1_t (+ sx_1_0 (* (- (/ 3.0 5.0)) time1))) (not (<= 50.0 fx_1_t)) (not (<= sx_1_t 0.0)) (not (<= 50.0 fx_1_0)) (not (<= sx_1_0 0.0)))))
(let (($x445 (and $x49 ms_1 (= fx_1_t (+ fx_1_0 (* (- (/ 2.0 5.0)) time1))) (= sx_1_t (+ sx_1_0 time1)) (not (<= fx_1_t 0.0)) (not (<= 50.0 sx_1_t)) (not (<= fx_1_0 0.0)) (not (<= 50.0 sx_1_0)))))
(let (($x437 (and mf_1 ms_1 $x116 (= sx_1_t (+ sx_1_0 time1)) (not (<= 50.0 fx_1_t)) (not (<= 50.0 sx_1_t)) (not (<= 50.0 fx_1_0)) (not (<= 50.0 sx_1_0)))))
(let (($x10 (not ms_0)))
(let (($x8 (not mf_0)))
(let (($x425 (and $x8 $x10 (= fx_0_t (+ fx_0_0 (* (- (/ 2.0 5.0)) time0))) (= sx_0_t (+ sx_0_0 (* (- (/ 3.0 5.0)) time0))) (not (<= fx_0_t 0.0)) (not (<= sx_0_t 0.0)) (not (<= fx_0_0 0.0)) (not (<= sx_0_0 0.0)))))
(let (($x62 (= fx_0_t (+ fx_0_0 (* (/ 7.0 10.0) time0)))))
(let (($x424 (and mf_0 $x10 $x62 (= sx_0_t (+ sx_0_0 (* (- (/ 3.0 5.0)) time0))) (not (<= 50.0 fx_0_t)) (not (<= sx_0_t 0.0)) (not (<= 50.0 fx_0_0)) (not (<= sx_0_0 0.0)))))
(let (($x415 (and $x8 ms_0 (= fx_0_t (+ fx_0_0 (* (- (/ 2.0 5.0)) time0))) (= sx_0_t (+ sx_0_0 time0)) (not (<= fx_0_t 0.0)) (not (<= 50.0 sx_0_t)) (not (<= fx_0_0 0.0)) (not (<= 50.0 sx_0_0)))))
(let (($x406 (and mf_0 ms_0 $x62 (= sx_0_t (+ sx_0_0 time0)) (not (<= 50.0 fx_0_t)) (not (<= 50.0 sx_0_t)) (not (<= 50.0 fx_0_0)) (not (<= 50.0 sx_0_0)))))
(let (($x39 (= sx_1_0 sx_0_t)))
(let (($x37 (= fx_1_0 fx_0_t)))
(let (($x394 (and (not (<= (* (/ 1.0 2.0) fx_0_t) (* (/ 1.0 2.0) sx_0_t))) (not (<= (* (/ 1.0 2.0) sx_0_t) (* (/ 1.0 2.0) fx_0_t))) $x49 $x44 $x37 $x39)))
(let (($x384 (<= (* (/ 1.0 2.0) sx_0_t) (* (/ 1.0 2.0) fx_0_t))))
(let (($x393 (and (not (<= (* (/ 1.0 2.0) fx_0_t) (* (/ 1.0 2.0) sx_0_t))) $x384 $x49 ms_1 $x37 $x39)))
(let (($x383 (<= (* (/ 1.0 2.0) fx_0_t) (* (/ 1.0 2.0) sx_0_t))))
(let (($x395 (or (and $x383 $x384 mf_1 ms_1 $x37 $x39) (and $x383 (not $x384) mf_1 $x44 $x37 $x39) $x393 $x394)))
(and $x8 $x10 (>= fx_0_0 (/ 199.0 10.0)) (<= fx_0_0 (/ 201.0 10.0)) (>= sx_0_0 23.0) (<= sx_0_0 (/ 47.0 2.0)) $x395 (or $x406 $x415 $x424 $x425) (or $x437 $x445 $x453 $x454) $x162 (= time0 tau_0) (= time1 (+ tau_1 (* (- 1.0) tau_0))) (not (<= tau_1 tau_0)) (or (not (and reachability_0 mf_0 ms_0)) $x467) (or (not (and (not reachability_0) mf_0 ms_0)) $x471) (or (not (and reachability_0 $x8 ms_0)) $x467) (or (not (and (not reachability_0) $x8 ms_0)) $x471) (or (not (and reachability_0 mf_0 $x10)) $x467) (or (not (and (not reachability_0) mf_0 $x10)) $x471) (or (not (and reachability_0 $x8 $x10)) $x467) (or (not (and (not reachability_0) $x8 $x10)) $x471) (or (not (and reachability_1 mf_1 ms_1)) $x497) (or (not (and (not reachability_1) mf_1 ms_1)) $x501) (or (not (and reachability_1 $x49 ms_1)) $x497) (or (not (and (not reachability_1) $x49 ms_1)) $x501) (or (not (and reachability_1 mf_1 $x44)) $x497) (or (not (and (not reachability_1) mf_1 $x44)) $x501) (or (not (and reachability_1 $x49 $x44)) $x497) (or (not (and (not reachability_1) $x49 $x44)) $x501) $x218 (>= 60.0 TauIndex0) $x222 (>= 60.0 TauIndex1) $x225 (>= 60.0 TauIndex2) $x228 (>= 60.0 TauIndex3) $x231 (>= 60.0 TauIndex4) $x234 (>= 60.0 TauIndex5) $x237 (>= 60.0 TauIndex6) (>= 60.0 tau_0) (<= 0.0 tau_1) (>= 60.0 tau_1) (<= 0.0 time0) (>= 60.0 time0) (<= 0.0 time1) (>= 60.0 time1) (= TauIndex0 tau_0) (= tau_0 TauIndex0) (or $x531 $x250 (= TauIndex5 0.0) (= TauIndex5 (- 40.0))) (or $x540 $x264 (= TauIndex3 0.0) (= TauIndex3 (- 40.0))) (or $x547 $x273 (= TauIndex1 0.0) (= TauIndex1 (- 40.0))) (or $x554 $x282 (= TauIndex6 0.0) (= TauIndex6 (- 40.0))) (or $x561 $x291 (= TauIndex2 0.0) (= TauIndex2 (- 40.0))) (or $x568 $x300 (= TauIndex4 0.0) (= TauIndex4 (- 40.0))) $x574 $x578 $x576 (not $x594) $x605 (= chi2 (not (or (not (>= TauIndex0 tau_0)) reachability_1))) (= chi0 (not $x612)))))))))))))))))))))))))))))))))))))))))))))))))))))))))
(check-sat)

